&control
    calculation = 'relax'
    prefix = 'NbOCl2'
    pseudo_dir = '/home/pillai/my_codes/yambo/NbOX2/PS'
    outdir = './outs'
    verbosity = 'high'
    wf_collect = .true.
    tprnfor = .true.
    tstress = .false.
    etot_conv_thr = 1.0d-6
    forc_conv_thr = 1.0d-4
    nstep = 100
    restart_mode = 'from_scratch'
/

&system
    ibrav = 8
    A = 6.752985987
    B = 3.927757644
    C = 25.000000000

    nat = 8
    ntyp = 3

    ecutwfc = 80
    input_dft = 'PBE'

    occupations = 'smearing'
    smearing = 'mv'
    degauss = 0.005

    assume_isolated = '2D'
/

&electrons
    mixing_mode = 'local-TF'
    mixing_beta = 0.08
    mixing_ndim = 12
    conv_thr = 1.0d-10
    electron_maxstep = 300
    diagonalization = 'david'
    diago_david_ndim = 4
/

&ions
    ion_dynamics = 'bfgs'
/

ATOMIC_SPECIES
    Nb  92.90638   Nb_ONCV_PBE-1.2.upf
    O   15.99940   O_ONCV_PBE-1.2.upf
    Cl  35.45300   Cl_ONCV_PBE-1.2.upf

ATOMIC_POSITIONS crystal
Nb  0.2806568086  0.0708848736  0.4999999120
Nb  0.7193431914  0.0708848736  0.5000000880

O   0.2734113490  0.5297589799  0.4999984652
O   0.7265886510  0.5297589799  0.5000015348

Cl  0.0000018074  0.0185579245  0.5671818862
Cl  0.9999981926  0.0185579245  0.4328181138

Cl  0.4999973682  0.0271982220  0.5781502689
Cl  0.5000026318  0.0271982220  0.4218497311

K_POINTS automatic
    10 20 1 0 0 0