&control
    calculation = 'vc-relax'
    prefix = 'NbOCl2'
    pseudo_dir = '/home/pillai/my_codes/yambo/NbOX2/PS'
    outdir = './outs'
    verbosity = 'high'
    wf_collect = .true.
    tprnfor = .true.
    tstress = .true.
    etot_conv_thr = 1.0d-6
    forc_conv_thr = 1.0d-4
    nstep = 250
    restart_mode = 'from_scratch'
/

&system
    ibrav = 8
    A = 7.038041
    B = 3.898285
    C = 25.000000

    nat = 8
    ntyp = 3

    ecutwfc = 80
    input_dft = 'PBE'

    occupations = 'smearing'
    smearing = 'mv'
    degauss = 0.005

    assume_isolated = '2D'
/

&electrons
    mixing_mode = 'local-TF'
    mixing_beta = 0.08
    mixing_ndim = 12
    conv_thr = 1.0d-10
    electron_maxstep = 300
    diagonalization = 'david'
    diago_david_ndim = 4
/

&ions
    ion_dynamics = 'bfgs'
/

&cell
    cell_dynamics = 'bfgs'
    press = 0.0
    press_conv_thr = 0.5
    cell_dofree = 'ibrav'
/

ATOMIC_SPECIES
    Nb  92.90638   Nb_ONCV_PBE-1.2.upf
    O   15.99940   O_ONCV_PBE-1.2.upf
    Cl  35.45300   Cl_ONCV_PBE-1.2.upf

ATOMIC_POSITIONS crystal
Nb               0.2831692573        0.0685970126        0.4999998649
Nb               0.7168307427        0.0685970126        0.5000001351
O                0.2789847928        0.5279529913        0.4999976425
O                0.7210152072        0.5279529913        0.5000023575
Cl               0.0000018074        0.0219576944        0.5644765643
Cl               0.9999981926        0.0219576944        0.4355234357
Cl               0.4999973682        0.0278923017        0.5769871140
Cl               0.5000026318        0.0278923017        0.4230128860

K_POINTS automatic
    10 20 1 0 0 0